2004          0             4    2  
100002        0             2    100
1005          0             5    1  
4005          0             5    4  
2002          0             2    2  
1             0             1    0  
4004          0             4    4  
0             0             0    0  
100001        0             1    100
5             0             5    0  
100003        0             3    100
3005          0             5    3  
100100        0             100  100
1003          0             3    1  
5005          0             5    5  
3             0             3    0  
2003          0             3    2  
1004          0             4    1  
2005          0             5    2  
100           0             100  0  
2             0             2    0  
100004        0             4    100
3003          0             3    3  
1001          0             1    1  
1002          0             2    1  
3004          0             4    3  
100005        0             5    100
4             0             4    0  
